s td 62 19 99
b 1 4 43 96
b 2 10 41 52 64 67 95 99
b 3 20 25 46
b 4 22 25 46
b 5 29 51 64
b 6 42 55 59
b 7 42 56 58 61 70 73 79
b 8 30 33 38 62 74 92 96
b 9 24 47 70
b 10 23 35 46 82
b 11 1 25 84 98
b 12 5 13 16 19 21 33 37 48 52 53 70
b 13 5 13 19 21 33 37 52 53 70 80
b 14 5 19 33 52 70 94
b 15 9 11 12 34 49 58 62 78 90 99
b 16 9 11 12 49 58 62 69 71 78 90 99
b 17 12 49 58 62 87 99
b 18 12 49 58 62 90 99
b 19 1 25 30 38 46 54 60 67 73 79 89 91 93 95
b 20 25 30 32 33 38 46 54 58 60 67 68 73 79 85 89 91 93 95 99
b 21 25 30 32 33 38 46 52 54 58 67 68 73 79 85 89 91 93 95 99
b 22 25 30 32 33 38 46 52 58 67 68 70 73 79 85 89 91 93 95
b 23 25 30 32 38 42 46 58 61 67 68 70 73 79 85 89 91 93 95
b 24 8 25 30 32 38 42 46 58 61 67 68 70 73 79 89 95
b 25 8 32 42 57 58 61 68 70 73 79
b 26 7 8 32 42 57 58 70
b 27 7 24 32 57 58 70
b 28 3 7 24 32 57 58
b 29 25 30 32 38 41 46 52 54 64 67 68 73 79 85 91 93 95 99
b 30 18 25 30 32 38 41 46 52 54 64 67 68 73 79 95 99
b 31 14 18 32 41 52 64 67 68 95 99
b 32 14 18 32 52 64 86 99
b 33 14 32 52 65 86 99
b 34 14 32 40 52 65 86
b 35 25 30 32 33 38 46 58 60 62 67 68 73 79 85 91 93 95 99
b 36 25 30 32 33 38 46 60 62 67 68 73 74 79 85 91 93 95 96
b 37 25 30 32 33 38 46 60 62 67 68 73 74 79 88 95 96
b 38 17 30 32 33 38 62 68 74 88 96
b 39 17 32 33 62 63 88 96
b 40 17 32 33 44 62 63
b 41 17 27 32 44 62 63
b 42 25 30 38 46 50 67 68 73 79 91 95
b 43 1 25 38 46 54 60 73 82 89 91 93 95
b 44 1 25 46 54 60 82 89 91 93 98
b 45 1 35 46 54 60 82 89 91 93 98
b 46 1 35 54 60 66 82 89 93 98
b 47 38 46 73 82 83 95
b 48 25 30 39 67 79
b 49 1 25 30 67 77 79
b 50 38 46 73 95 97
b 51 2 3 7 15 24 32 57
b 52 6 17 30 38 43 74
b 53 26 57 59 61 73 79
b 54 8 42 57 58 59 61 70 73 79
b 55 14 28 32 36 40 65 86
b 56 17 27 31 32 44 63 72
b 57 17 30 33 38 43 62 74 88 96
b 58 8 45 58 61 70 89
b 59 18 41 51 52 64 67 81 95 99
b 60 33 60 62 74 75 88
b 61 18 41 52 54 76 99
b 62 14 18 41 52 64 67 81 95 99
1 57
2 29
3 19
4 19
5 59
6 54
7 23
8 36
9 27
10 45
11 44
12 13
13 14
14 22
15 16
16 18
17 18
18 35
19 20
19 43
19 48
19 49
19 50
20 21
20 35
20 42
21 22
21 29
22 23
23 24
24 58
24 25
25 54
25 26
26 27
27 28
28 51
29 30
30 61
30 31
31 62
31 32
32 33
33 34
34 55
35 36
36 37
37 60
37 38
38 57
38 39
39 40
40 41
41 56
43 44
43 47
44 45
45 46
52 57
53 54
59 62
